c colouring generated by benchmark framework
p edge 80 254
v 1 6
v 2 3
v 3 0
v 4 0
v 5 3
v 6 9
v 7 3
v 8 7
v 9 2
v 10 8
v 11 6
v 12 7
v 13 4
v 14 8
v 15 7
v 16 1
v 17 4
v 18 0
v 19 9
v 20 2
v 21 0
v 22 6
v 23 6
v 24 7
v 25 5
v 26 9
v 27 9
v 28 4
v 29 5
v 30 8
v 31 7
v 32 6
v 33 8
v 34 1
v 35 0
v 36 7
v 37 1
v 38 0
v 39 9
v 40 1
v 41 4
v 42 0
v 43 3
v 44 2
v 45 6
v 46 7
v 47 7
v 48 4
v 49 0
v 50 7
v 51 7
v 52 3
v 53 9
v 54 4
v 55 7
v 56 5
v 57 3
v 58 6
v 59 0
v 60 8
v 61 9
v 62 8
v 63 7
v 64 3
v 65 0
v 66 5
v 67 0
v 68 6
v 69 3
v 70 5
v 71 8
v 72 8
v 73 4
v 74 4
v 75 2
v 76 8
v 77 8
v 78 8
v 79 4
v 80 5
